(declare-fun T_1 () Bool)
(declare-fun T_2 () Bool)
(declare-fun var_0xINPUT_103028 () String)
(assert (= T_1 (= "Jgt73Q8iHP" var_0xINPUT_103028)))
(assert (= T_2 (not T_1)))
(assert T_2)
(check-sat)
